qbf_easy_train/easy_5708_UNSAT.qdimacs
p cnf 44 130
a 32 4 20 0
e 1 2 3 5 6 7 8 9 10 11 12 13 14 15 16 17 18 19 21 22 23 24 25 26 27 28 29 30 31 33 34 35 36 37 38 39 40 41 42 43 44 0
4 3 0
4 -3 0
-2 4 -5 0
2 -4 -5 0
-2 -4 5 0
2 4 5 0
6 1 0
6 -5 0
-1 5 -6 0
8 5 0
8 7 0
-5 -7 -8 0
11 9 0
11 -10 0
-9 10 -11 0
14 12 0
14 13 0
-12 -13 -14 0
-15 12 0
-15 11 0
-12 -11 15 0
15 7 -16 0
-15 -7 -16 0
15 -7 16 0
-15 7 16 0
-14 16 -17 0
14 -16 -17 0
-14 -16 17 0
14 16 17 0
-18 11 0
-18 17 0
-11 -17 18 0
19 8 0
19 18 0
-8 -18 -19 0
20 -6 0
20 19 0
6 -19 -20 0
-7 9 -21 0
7 -9 -21 0
-7 -9 21 0
7 9 21 0
22 14 0
22 -2 0
-14 2 -22 0
-23 2 0
-23 7 0
-2 -7 23 0
-24 22 0
-24 23 0
-22 -23 24 0
25 7 0
25 -24 0
-7 24 -25 0
-26 -9 0
-26 -3 0
9 3 26 0
-26 16 -27 0
26 -16 -27 0
-26 -16 27 0
26 16 27 0
-25 -27 -28 0
25 27 -28 0
-25 27 28 0
25 -27 28 0
29 -2 0
29 13 0
2 -13 -29 0
30 -28 0
30 -29 0
28 29 -30 0
-31 -21 0
-31 -30 0
21 30 31 0
20 31 -32 0
-20 -31 -32 0
20 -31 32 0
-20 31 32 0
-33 9 0
-33 -16 0
-9 16 33 0
16 23 -34 0
-16 -23 -34 0
16 -23 34 0
-16 23 34 0
-35 -22 0
-35 4 0
22 -4 35 0
36 34 0
36 35 0
-34 -35 -36 0
33 -36 -37 0
-33 36 -37 0
33 36 37 0
-33 -36 37 0
-38 -32 0
-38 37 0
32 -37 38 0
39 -26 0
39 13 0
26 -13 -39 0
-40 -7 0
-40 11 0
7 -11 40 0
41 -13 0
41 9 0
13 -9 -41 0
42 40 0
42 -41 0
-40 41 -42 0
-43 -39 0
-43 -42 0
39 42 43 0
38 -43 -44 0
-38 43 -44 0
38 43 44 0
-38 -43 44 0
-35 10 11 -32 -40 -24 0
29 23 1 0
-28 -9 20 0
-5 33 -18 38 29 -32 0
-19 -4 -33 42 -28 0
2 19 -27 7 28 0
-7 25 -29 -36 -39 0
-10 -5 21 0
-36 19 23 -8 -39 -41 0
-12 -37 31 -39 -44 21 14 11 0
-5 32 -25 28 0
15 -3 33 -13 44 -39 0
44 0
