sat_easy_train/easy_5708_UNSAT.dimacs
p cnf 111 370
1 2 -3 0
-1 -2 -3 0
1 -2 3 0
-1 2 3 0
-6 -4 0
-6 5 0
4 -5 6 0
-7 -6 0
-7 -4 0
6 4 7 0
7 6 -8 0
-7 -6 -8 0
7 -6 8 0
-7 6 8 0
8 9 -10 0
-8 -9 -10 0
8 -9 10 0
-8 9 10 0
12 -10 0
12 11 0
10 -11 -12 0
14 13 0
14 11 0
-13 -11 -14 0
-15 11 0
-15 14 0
-11 -14 15 0
16 12 0
16 -15 0
-12 15 -16 0
-17 3 0
-17 16 0
-3 -16 17 0
-18 12 -19 0
18 -12 -19 0
-18 -12 19 0
18 12 19 0
-17 -19 -20 0
17 19 -20 0
-17 19 20 0
17 -19 20 0
5 -7 -21 0
-5 7 -21 0
5 7 21 0
-5 -7 21 0
22 -20 0
22 -21 0
20 21 -22 0
18 23 -24 0
-18 -23 -24 0
18 -23 24 0
-18 23 24 0
-8 -13 -26 0
8 13 -26 0
-8 13 26 0
8 -13 26 0
-27 25 0
-27 -26 0
-25 26 27 0
28 25 0
28 9 0
-25 -9 -28 0
27 -28 -29 0
-27 28 -29 0
27 28 29 0
-27 -28 29 0
30 24 0
30 -29 0
-24 29 -30 0
-6 13 -31 0
6 -13 -31 0
-6 -13 31 0
6 13 31 0
32 11 -33 0
-32 -11 -33 0
32 -11 33 0
-32 11 33 0
-34 -6 0
-34 -33 0
6 33 34 0
-31 -34 -35 0
31 34 -35 0
-31 34 35 0
31 -34 35 0
-36 35 0
-36 -5 0
-35 5 36 0
37 30 0
37 -36 0
-30 36 -37 0
-38 23 0
-38 14 0
-23 -14 38 0
39 -7 0
39 38 0
7 -38 -39 0
-40 -8 0
-40 6 0
8 -6 40 0
-40 -15 -41 0
40 15 -41 0
-40 15 41 0
40 -15 41 0
42 -25 0
42 -25 0
25 -42 0
-5 -42 -43 0
5 42 -43 0
-5 42 43 0
5 -42 43 0
44 43 0
44 -5 0
-43 5 -44 0
45 -44 0
45 -42 0
44 42 -45 0
-46 44 0
-46 -32 0
-44 32 46 0
47 -45 0
47 46 0
45 -46 -47 0
48 -41 0
48 47 0
41 -47 -48 0
-39 48 -49 0
39 -48 -49 0
-39 -48 49 0
39 48 49 0
-37 49 -50 0
37 -49 -50 0
-37 -49 50 0
37 49 50 0
22 -50 -51 0
-22 50 -51 0
22 50 51 0
-22 -50 51 0
-53 -18 0
-53 -52 0
18 52 53 0
53 -38 -54 0
-53 38 -54 0
53 38 54 0
-53 -38 54 0
56 -55 0
56 9 0
55 -9 -56 0
-57 5 0
-57 13 0
-5 -13 57 0
-58 -14 0
-58 57 0
14 -57 58 0
-52 58 -59 0
52 -58 -59 0
-52 -58 59 0
52 58 59 0
56 59 -60 0
-56 -59 -60 0
56 -59 60 0
-56 59 60 0
-25 23 -61 0
25 -23 -61 0
-25 -23 61 0
25 23 61 0
62 60 0
62 61 0
-60 -61 -62 0
63 11 0
63 -23 0
-11 23 -63 0
64 -14 0
64 63 0
14 -63 -64 0
-13 24 -65 0
13 -24 -65 0
-13 -24 65 0
13 24 65 0
66 35 0
66 4 0
-35 -4 -66 0
1 -66 -67 0
-1 66 -67 0
1 66 67 0
-1 -66 67 0
68 65 0
68 67 0
-65 -67 -68 0
-69 -64 0
-69 68 0
64 -68 69 0
10 5 -70 0
-10 -5 -70 0
10 -5 70 0
-10 5 70 0
6 70 -71 0
-6 -70 -71 0
6 -70 71 0
-6 70 71 0
72 -24 0
72 -71 0
24 71 -72 0
73 -13 0
73 34 0
13 -34 -73 0
74 -43 0
74 -73 0
43 73 -74 0
75 -72 0
75 74 0
72 -74 -75 0
76 -13 0
76 -7 0
13 7 -76 0
77 -75 0
77 76 0
75 -76 -77 0
78 -69 0
78 77 0
69 -77 -78 0
79 62 0
79 78 0
-62 -78 -79 0
80 -23 0
80 24 0
23 -24 -80 0
81 80 0
81 -33 0
-80 33 -81 0
-42 56 -82 0
42 -56 -82 0
-42 -56 82 0
42 56 82 0
83 -82 0
83 6 0
82 -6 -83 0
83 -56 -84 0
-83 56 -84 0
83 56 84 0
-83 -56 84 0
81 84 -85 0
-81 -84 -85 0
81 -84 85 0
-81 84 85 0
9 -86 -87 0
-9 86 -87 0
9 86 87 0
-9 -86 87 0
44 -87 -88 0
-44 87 -88 0
44 87 88 0
-44 -87 88 0
89 90 0
-89 90 0
26 -90 -91 0
-26 90 -91 0
26 90 91 0
-26 -90 91 0
91 55 -92 0
-91 -55 -92 0
91 -55 92 0
-91 55 92 0
93 92 0
93 71 0
-92 -71 -93 0
94 88 0
94 -93 0
-88 93 -94 0
-85 94 -95 0
85 -94 -95 0
-85 -94 95 0
85 94 95 0
-96 -79 0
-96 -95 0
79 95 96 0
97 -10 0
97 70 0
10 -70 -97 0
98 -56 0
98 -83 0
56 83 -98 0
-99 -5 0
-99 -2 0
5 2 99 0
-98 -99 -100 0
98 99 -100 0
-98 99 100 0
98 -99 100 0
-97 -100 -101 0
97 100 -101 0
-97 100 101 0
97 -100 101 0
102 96 0
102 101 0
-96 -101 -102 0
-54 102 -103 0
54 -102 -103 0
-54 -102 103 0
54 102 103 0
-104 4 0
-104 38 0
-4 -38 104 0
-106 -105 0
-106 -3 0
105 3 106 0
104 106 -107 0
-104 -106 -107 0
104 -106 107 0
-104 106 107 0
-108 4 0
-108 -52 0
-4 52 108 0
-109 -107 0
-109 108 0
107 -108 109 0
110 -103 0
110 -109 0
103 109 -110 0
-111 -51 0
-111 110 0
51 -110 111 0
-55 40 0
-108 -32 44 0
-92 -28 -4 46 72 11 0
-41 -82 0
-69 20 -83 -24 -8 0
-77 -22 0
111 -72 -39 89 67 0
33 59 49 -111 0
-97 -72 -55 -13 50 -54 0
71 -49 -28 0
40 12 90 4 0
-101 57 108 0
-42 78 98 27 2 72 0
-104 -20 -76 0
65 48 26 -82 53 -67 0
-92 -34 -66 0
23 58 79 53 8 0
106 48 0
-73 2 -97 0
-100 66 0
79 55 -24 -88 5 23 0
-1 49 98 -42 -10 0
10 -3 -96 -56 0
86 31 83 -84 0
-25 23 0
51 29 0
21 32 0
51 -20 -56 1 40 76 0
-8 22 0
91 -109 37 0
91 84 -25 -28 -60 0
90 7 -3 -47 0
-66 -60 -67 3 0
-53 -74 65 -105 107 21 0
-71 52 80 -32 -68 0
85 -95 0
70 92 0
-44 -39 36 81 -95 0
18 67 -32 -9 61 0
93 101 -48 0
-73 -66 -11 93 -70 -108 0
91 -7 66 -71 0
-61 2 0
62 -57 0
106 -55 0
74 86 36 0
-93 45 17 -103 4 -91 0
-54 -79 0
111 0
